p cnf 10 50
-4 -8 10 0
9 -3 5 0
-10 -5 6 0
6 4 -5 0
6 8 -7 0
-2 7 9 0
10 -2 -5 0
-4 8 -9 0
-10 -8 3 0
5 -9 -6 0
2 -7 1 0
-10 -5 -8 0
3 -5 6 0
7 -3 10 0
-4 8 -9 0
-8 -4 -9 0
4 5 -2 0
-2 3 5 0
-3 -1 -7 0
1 10 8 0
-3 -7 9 0
2 -5 7 0
-6 -8 5 0
2 -5 -3 0
-5 -1 8 0
-9 -1 -6 0
-8 -5 9 0
-8 -6 -3 0
-2 10 4 0
8 5 -7 0
-7 -6 8 0
10 6 -4 0
-9 6 -1 0
1 -4 -8 0
9 3 10 0
-5 7 -1 0
-1 4 -3 0
1 2 7 0
5 -10 -1 0
-4 5 9 0
-2 -5 -8 0
6 2 -7 0
6 1 2 0
6 -7 9 0
-4 7 8 0
5 4 1 0
-9 -8 -2 0
8 -5 10 0
6 10 3 0
-10 -1 -7 0